NAME          
ROWS
 N  OBJ
 L  c1
 L  c2
COLUMNS
    MARKER    'MARKER'                 'INTORG'
    x[1]      c1        236
    x[1]      c2        717
    x[1]      OBJ       -76
    x[2]      c1        532
    x[2]      c2        591
    x[2]      OBJ       -378
    x[3]      c1        955
    x[3]      c2        807
    x[3]      OBJ       -409
    x[4]      c1        291
    x[4]      c2        181
    x[4]      OBJ       -408
    x[5]      c1        655
    x[5]      c2        804
    x[5]      OBJ       -804
    x[6]      c1        636
    x[6]      c2        455
    x[6]      OBJ       -900
    x[7]      c1        861
    x[7]      c2        887
    x[7]      OBJ       -278
    x[8]      c1        80
    x[8]      c2        571
    x[8]      OBJ       -958
    x[9]      c1        538
    x[9]      c2        742
    x[9]      OBJ       -765
    x[10]     c1        630
    x[10]     c2        992
    x[10]     OBJ       -192
    x[11]     c1        681
    x[11]     c2        459
    x[11]     OBJ       -839
    x[12]     c1        590
    x[12]     c2        460
    x[12]     OBJ       -428
    x[13]     c1        352
    x[13]     c2        127
    x[13]     OBJ       -773
    x[14]     c1        489
    x[14]     c2        604
    x[14]     OBJ       -62
    x[15]     c1        187
    x[15]     c2        745
    x[15]     OBJ       -209
    x[16]     c1        594
    x[16]     c2        514
    x[16]     OBJ       -309
    x[17]     c1        205
    x[17]     c2        35
    x[17]     OBJ       -775
    x[18]     c1        17
    x[18]     c2        591
    x[18]     OBJ       -497
    x[19]     c1        186
    x[19]     c2        873
    x[19]     OBJ       -955
    x[20]     c1        242
    x[20]     c2        297
    x[20]     OBJ       -216
    x[21]     c1        950
    x[21]     c2        416
    x[21]     OBJ       -396
    x[22]     c1        68
    x[22]     c2        2
    x[22]     OBJ       -302
    x[23]     c1        316
    x[23]     c2        224
    x[23]     OBJ       -836
    x[24]     c1        646
    x[24]     c2        514
    x[24]     OBJ       -221
    x[25]     c1        512
    x[25]     c2        424
    x[25]     OBJ       -913
    x[26]     c1        527
    x[26]     c2        188
    x[26]     OBJ       -159
    x[27]     c1        860
    x[27]     c2        336
    x[27]     OBJ       -656
    x[28]     c1        832
    x[28]     c2        255
    x[28]     OBJ       -248
    x[29]     c1        601
    x[29]     c2        946
    x[29]     OBJ       -18
    x[30]     c1        776
    x[30]     c2        836
    x[30]     OBJ       -845
    x[31]     c1        271
    x[31]     c2        681
    x[31]     OBJ       -263
    x[32]     c1        107
    x[32]     c2        820
    x[32]     OBJ       -893
    x[33]     c1        937
    x[33]     c2        535
    x[33]     OBJ       -631
    x[34]     c1        633
    x[34]     c2        490
    x[34]     OBJ       -719
    x[35]     c1        848
    x[35]     c2        853
    x[35]     OBJ       -146
    x[36]     c1        530
    x[36]     c2        319
    x[36]     OBJ       -166
    x[37]     c1        254
    x[37]     c2        704
    x[37]     OBJ       -879
    x[38]     c1        651
    x[38]     c2        79
    x[38]     OBJ       -953
    x[39]     c1        86
    x[39]     c2        310
    x[39]     OBJ       -320
    x[40]     c1        289
    x[40]     c2        532
    x[40]     OBJ       -66
RHS
    rhs       c1        9826
    rhs       c2        10458
RANGES
BOUNDS
 BV bounds    x[1]
 BV bounds    x[2]
 BV bounds    x[3]
 BV bounds    x[4]
 BV bounds    x[5]
 BV bounds    x[6]
 BV bounds    x[7]
 BV bounds    x[8]
 BV bounds    x[9]
 BV bounds    x[10]
 BV bounds    x[11]
 BV bounds    x[12]
 BV bounds    x[13]
 BV bounds    x[14]
 BV bounds    x[15]
 BV bounds    x[16]
 BV bounds    x[17]
 BV bounds    x[18]
 BV bounds    x[19]
 BV bounds    x[20]
 BV bounds    x[21]
 BV bounds    x[22]
 BV bounds    x[23]
 BV bounds    x[24]
 BV bounds    x[25]
 BV bounds    x[26]
 BV bounds    x[27]
 BV bounds    x[28]
 BV bounds    x[29]
 BV bounds    x[30]
 BV bounds    x[31]
 BV bounds    x[32]
 BV bounds    x[33]
 BV bounds    x[34]
 BV bounds    x[35]
 BV bounds    x[36]
 BV bounds    x[37]
 BV bounds    x[38]
 BV bounds    x[39]
 BV bounds    x[40]
ENDATA
